set VV := 0 1 2 3 4 5 6 7 8 9 10 11 12 13 14 15 16 17 18 ;
set VS := 0 1 2 3 4 5 6 7 8 9 10 11 12 13 14 15 16 17 18 19 20 21 22 23 24 25 26 27 28 29 30 31 32 33 34 35 36 37 38 39 40 41 ;
param cv := 
0 21
1 11
2 11
3 24
4 14
5 12
6 25
7 15
8 14
9 17
10 24
11 20
12 23
13 20
14 15
15 16
16 20
17 19
18 13
;
param cs := 
0 24
1 23
2 34
3 35
4 21
5 26
6 39
7 29
8 37
9 23
10 34
11 38
12 35
13 23
14 34
15 20
16 40
17 25
18 37
19 38
20 24
21 37
22 37
23 20
24 21
25 21
26 23
27 22
28 39
29 24
30 27
31 37
32 30
33 38
34 21
35 34
36 27
37 25
38 30
39 26
40 32
41 32
;
param bv:	 0 1 2 3 4 5 6 7 8 9 10 11 12 13 14 15 16 17 18 := 
		0 0 14 0 21 0 0 0 0 12 0 0 16 0 0 0 0 0 0 12 
		1 0 0 0 0 0 0 0 23 0 0 0 0 0 0 0 0 0 0 0 
		2 0 0 0 0 0 14 0 0 0 0 12 0 0 0 0 0 0 0 0 
		3 0 0 0 0 0 17 0 0 0 0 0 0 0 0 0 0 0 0 0 
		4 0 0 0 0 0 0 0 0 0 0 0 0 0 0 13 0 0 0 0 
		5 0 0 0 0 0 0 0 0 0 0 0 0 0 0 0 0 0 0 0 
		6 0 0 0 0 0 0 0 0 0 0 0 0 0 0 0 0 0 0 20 
		7 0 0 0 0 0 0 0 0 0 0 16 0 0 0 0 0 0 0 0 
		8 0 0 0 0 0 0 0 0 0 0 0 0 0 0 0 25 23 0 0 
		9 0 0 0 0 0 0 0 0 0 0 0 0 19 0 21 0 0 0 0 
		10 0 0 0 0 0 0 0 0 0 0 0 0 0 0 0 0 0 19 20 
		11 0 0 0 0 0 0 0 0 0 0 0 0 0 0 19 0 0 0 0 
		12 0 0 0 0 0 0 0 0 0 0 0 0 0 21 0 19 0 0 0 
		13 0 0 0 0 0 0 0 0 0 0 0 0 0 0 0 0 0 0 0 
		14 0 0 0 0 0 0 0 0 0 0 0 0 0 0 0 0 0 10 0 
		15 0 0 0 0 0 0 0 0 0 0 0 0 0 0 0 0 0 0 0 
		16 0 0 0 0 0 0 0 0 0 0 0 0 0 0 0 0 0 0 0 
		17 0 0 0 0 0 0 0 0 0 0 0 0 0 0 0 0 0 0 0 
		18 0 0 0 0 0 0 0 0 0 0 0 0 0 0 0 0 0 0 0 
;
param bs:	 0 1 2 3 4 5 6 7 8 9 10 11 12 13 14 15 16 17 18 19 20 21 22 23 24 25 26 27 28 29 30 31 32 33 34 35 36 37 38 39 40 41 := 
		0 0 0 0 0 28 30 0 0 0 0 0 25 0 0 0 22 24 0 0 0 0 0 0 0 0 0 0 0 0 0 37 0 21 0 0 21 0 0 0 0 0 0 
		1 0 0 0 0 0 0 0 0 0 0 0 0 0 0 0 25 39 0 0 0 0 0 0 0 0 25 0 28 0 0 0 28 0 0 0 0 0 0 0 0 0 0 
		2 0 0 0 0 0 0 33 0 0 0 0 0 38 0 29 0 0 0 0 0 0 22 0 0 0 0 0 0 0 0 0 0 0 0 0 0 0 0 0 0 0 0 
		3 0 0 0 0 0 0 0 0 0 24 0 0 27 0 0 38 0 40 0 33 0 0 32 0 37 23 0 0 40 0 0 36 40 20 0 0 28 0 0 0 0 0 
		4 28 0 0 0 0 31 0 0 0 0 0 0 30 0 0 0 37 0 34 0 0 0 0 0 0 0 0 0 0 0 0 0 39 21 27 0 0 0 0 0 0 0 
		5 30 0 0 0 31 0 0 0 0 0 0 0 0 0 0 0 0 0 0 0 0 0 0 0 0 0 0 0 0 0 0 0 0 0 0 31 0 0 0 0 0 0 
		6 0 0 33 0 0 0 0 0 0 0 0 0 0 0 0 0 0 0 0 0 0 0 0 36 0 0 0 0 0 0 0 0 0 0 0 0 0 0 0 0 0 0 
		7 0 0 0 0 0 0 0 0 0 0 0 0 0 0 0 0 0 0 0 0 0 0 0 0 0 0 0 0 0 30 33 0 0 0 0 0 0 0 0 0 0 0 
		8 0 0 0 0 0 0 0 0 0 0 28 0 0 0 0 31 0 0 0 0 0 0 0 0 0 0 0 0 0 0 0 0 0 0 0 0 0 0 0 0 35 0 
		9 0 0 0 24 0 0 0 0 0 0 20 36 37 35 32 31 0 0 0 0 0 0 0 0 0 0 0 0 0 0 0 0 0 29 0 0 0 0 0 0 0 0 
		10 0 0 0 0 0 0 0 0 28 20 0 0 0 0 0 0 0 28 0 0 0 0 0 34 0 0 33 0 36 0 0 0 0 0 0 0 0 0 0 25 0 28 
		11 25 0 0 0 0 0 0 0 0 36 0 0 0 0 0 30 0 0 0 0 0 0 0 0 0 0 0 0 0 0 0 0 0 20 0 0 0 36 0 0 0 0 
		12 0 0 38 27 30 0 0 0 0 37 0 0 0 0 0 0 0 0 0 0 0 0 0 0 0 0 0 0 0 0 0 0 0 0 0 0 0 0 0 0 0 0 
		13 0 0 0 0 0 0 0 0 0 35 0 0 0 0 0 0 0 0 25 0 0 0 0 23 39 0 0 22 0 0 0 0 20 0 0 0 0 40 0 28 0 36 
		14 0 0 29 0 0 0 0 0 0 32 0 0 0 0 0 0 0 0 0 0 0 29 0 0 0 21 0 0 0 0 0 0 0 0 0 31 0 0 0 0 0 0 
		15 22 25 0 38 0 0 0 0 31 31 0 30 0 0 0 0 0 0 0 0 0 0 0 31 0 0 0 0 0 0 0 0 0 0 0 26 38 0 0 0 0 0 
		16 24 39 0 0 37 0 0 0 0 0 0 0 0 0 0 0 0 0 0 0 0 0 0 0 0 0 0 0 0 0 0 0 0 0 0 0 0 29 0 0 0 0 
		17 0 0 0 40 0 0 0 0 0 0 28 0 0 0 0 0 0 0 0 22 0 0 0 0 0 25 0 0 37 0 0 0 0 0 0 0 0 0 0 35 0 0 
		18 0 0 0 0 34 0 0 0 0 0 0 0 0 25 0 0 0 0 0 0 0 0 0 0 0 0 0 0 0 0 0 0 0 0 0 0 0 0 0 0 0 0 
		19 0 0 0 33 0 0 0 0 0 0 0 0 0 0 0 0 0 22 0 0 0 0 23 0 0 0 0 0 0 0 0 0 23 0 0 0 0 0 0 36 0 0 
		20 0 0 0 0 0 0 0 0 0 0 0 0 0 0 0 0 0 0 0 0 0 0 0 0 0 0 0 23 0 0 0 0 0 0 0 0 0 0 0 0 0 0 
		21 0 0 22 0 0 0 0 0 0 0 0 0 0 0 29 0 0 0 0 0 0 0 39 0 0 0 0 0 0 0 0 0 0 0 0 0 0 0 0 0 0 0 
		22 0 0 0 32 0 0 0 0 0 0 0 0 0 0 0 0 0 0 0 23 0 39 0 0 0 0 0 0 0 0 0 0 0 0 0 0 0 0 0 0 0 0 
		23 0 0 0 0 0 0 36 0 0 0 34 0 0 23 0 31 0 0 0 0 0 0 0 0 21 0 0 0 0 0 0 0 0 0 0 0 0 0 0 0 39 0 
		24 0 0 0 37 0 0 0 0 0 0 0 0 0 39 0 0 0 0 0 0 0 0 0 21 0 0 0 0 0 0 23 30 0 0 39 0 0 0 0 0 0 0 
		25 0 25 0 23 0 0 0 0 0 0 0 0 0 0 21 0 0 25 0 0 0 0 0 0 0 0 0 22 0 0 0 0 0 0 0 0 0 0 0 0 0 0 
		26 0 0 0 0 0 0 0 0 0 0 33 0 0 0 0 0 0 0 0 0 0 0 0 0 0 0 0 0 0 0 0 0 0 0 0 0 0 0 20 0 0 0 
		27 0 28 0 0 0 0 0 0 0 0 0 0 0 22 0 0 0 0 0 0 23 0 0 0 0 22 0 0 0 31 0 0 0 0 0 0 0 0 0 0 27 0 
		28 0 0 0 40 0 0 0 0 0 0 36 0 0 0 0 0 0 37 0 0 0 0 0 0 0 0 0 0 0 0 0 39 40 0 0 0 39 0 0 0 0 0 
		29 0 0 0 0 0 0 0 30 0 0 0 0 0 0 0 0 0 0 0 0 0 0 0 0 0 0 0 31 0 0 0 0 0 0 0 0 0 0 0 0 0 0 
		30 37 0 0 0 0 0 0 33 0 0 0 0 0 0 0 0 0 0 0 0 0 0 0 0 23 0 0 0 0 0 0 0 28 0 0 32 0 0 0 0 0 0 
		31 0 28 0 36 0 0 0 0 0 0 0 0 0 0 0 0 0 0 0 0 0 0 0 0 30 0 0 0 39 0 0 0 0 0 0 0 0 0 0 0 0 0 
		32 21 0 0 40 39 0 0 0 0 0 0 0 0 20 0 0 0 0 0 23 0 0 0 0 0 0 0 0 40 0 28 0 0 30 39 0 0 0 0 0 0 0 
		33 0 0 0 20 21 0 0 0 0 29 0 20 0 0 0 0 0 0 0 0 0 0 0 0 0 0 0 0 0 0 0 0 30 0 0 0 0 0 0 0 0 0 
		34 0 0 0 0 27 0 0 0 0 0 0 0 0 0 0 0 0 0 0 0 0 0 0 0 39 0 0 0 0 0 0 0 39 0 0 0 0 0 0 0 0 0 
		35 21 0 0 0 0 31 0 0 0 0 0 0 0 0 31 26 0 0 0 0 0 0 0 0 0 0 0 0 0 0 32 0 0 0 0 0 0 0 0 0 0 0 
		36 0 0 0 28 0 0 0 0 0 0 0 0 0 0 0 38 0 0 0 0 0 0 0 0 0 0 0 0 39 0 0 0 0 0 0 0 0 0 0 0 0 0 
		37 0 0 0 0 0 0 0 0 0 0 0 36 0 40 0 0 29 0 0 0 0 0 0 0 0 0 0 0 0 0 0 0 0 0 0 0 0 0 0 0 0 0 
		38 0 0 0 0 0 0 0 0 0 0 0 0 0 0 0 0 0 0 0 0 0 0 0 0 0 0 20 0 0 0 0 0 0 0 0 0 0 0 0 0 0 0 
		39 0 0 0 0 0 0 0 0 0 0 25 0 0 28 0 0 0 35 0 36 0 0 0 0 0 0 0 0 0 0 0 0 0 0 0 0 0 0 0 0 0 0 
		40 0 0 0 0 0 0 0 0 35 0 0 0 0 0 0 0 0 0 0 0 0 0 0 39 0 0 0 27 0 0 0 0 0 0 0 0 0 0 0 0 0 0 
		41 0 0 0 0 0 0 0 0 0 0 28 0 0 36 0 0 0 0 0 0 0 0 0 0 0 0 0 0 0 0 0 0 0 0 0 0 0 0 0 0 0 0 
;
